8450
1 1 0 0 0 1 0 0 0 0 0 1 1 1 0 0 0 1 1 0 1 1 0 0 1 1 1 1 1 1 
18 21 18 24 25 20 25 21 1 29 24 1 13 17 12 11 21 11 12 12 25 26 20 20 20 13 28 18 29 29 29 24 13 13 0 0 25 12 21 18 27 12 28 24 24 25 26 17 17 11 21 25 25 18 18 18 21 20 13 29 5 27 1 29 28 28 1 28 28 28 